TIP.Original.Linear/tip2015_weird_nat_mul3_assoc3.smt2
(set-logic HORN)
(declare-datatypes ((Nat_430 0)) (((zero_104 ) (succ_102 (p_292 Nat_430)))))
(declare-fun diseqNat_430 (Nat_430 Nat_430) Bool)
(declare-fun p_293 (Nat_430 Nat_430) Bool)
(declare-fun iszero_102 (Nat_430) Bool)
(declare-fun issucc_102 (Nat_430) Bool)
(assert (forall ((x_46670 Nat_430))
	(p_293 x_46670 (succ_102 x_46670))))
(assert (iszero_102 zero_104))
(assert (forall ((x_46672 Nat_430))
	(issucc_102 (succ_102 x_46672))))
(assert (forall ((x_46673 Nat_430))
	(diseqNat_430 zero_104 (succ_102 x_46673))))
(assert (forall ((x_46674 Nat_430))
	(diseqNat_430 (succ_102 x_46674) zero_104)))
(assert (forall ((x_46675 Nat_430) (x_46676 Nat_430))
	(=> (diseqNat_430 x_46675 x_46676)
	    (diseqNat_430 (succ_102 x_46675) (succ_102 x_46676)))))
(declare-fun plus_103 (Nat_430 Nat_430 Nat_430) Bool)
(assert (forall ((x_46572 Nat_430) (z_1508 Nat_430) (y_1671 Nat_430))
	(=> (plus_103 x_46572 z_1508 y_1671)
	    (plus_103 (succ_102 x_46572) (succ_102 z_1508) y_1671))))
(assert (forall ((x_46573 Nat_430))
	(plus_103 x_46573 zero_104 x_46573)))
(declare-fun add_273 (Nat_430 Nat_430 Nat_430 Nat_430) Bool)
(assert (forall ((x_46574 Nat_430) (x_46575 Nat_430) (x_46556 Nat_430) (y_1672 Nat_430) (z_1509 Nat_430))
	(=>	(and (add_273 x_46575 x_46556 y_1672 z_1509)
			(plus_103 x_46574 (succ_102 zero_104) x_46575))
		(add_273 x_46574 (succ_102 x_46556) y_1672 z_1509))))
(assert (forall ((x_46577 Nat_430) (x_46578 Nat_430) (x_46557 Nat_430) (z_1509 Nat_430))
	(=>	(and (add_273 x_46578 zero_104 x_46557 z_1509)
			(plus_103 x_46577 (succ_102 zero_104) x_46578))
		(add_273 x_46577 zero_104 (succ_102 x_46557) z_1509))))
(assert (forall ((x_46580 Nat_430))
	(add_273 x_46580 zero_104 zero_104 x_46580)))
(declare-fun mul_8 (Nat_430 Nat_430 Nat_430 Nat_430) Bool)
(assert (forall ((x_46581 Nat_430) (x_46582 Nat_430) (x_46583 Nat_430) (x_46584 Nat_430) (x_46585 Nat_430) (x_46586 Nat_430) (x_46587 Nat_430) (fail_24 Nat_430))
	(=>	(and (mul_8 x_46581 zero_104 zero_104 zero_104)
			(mul_8 x_46582 (succ_102 zero_104) zero_104 zero_104)
			(mul_8 x_46583 zero_104 (succ_102 zero_104) zero_104)
			(mul_8 x_46584 zero_104 zero_104 (succ_102 zero_104))
			(add_273 x_46585 x_46582 x_46583 x_46584)
			(add_273 x_46586 zero_104 zero_104 zero_104)
			(add_273 x_46587 x_46581 x_46585 x_46586)
			(plus_103 fail_24 (succ_102 zero_104) x_46587))
		(mul_8 (succ_102 zero_104) (succ_102 zero_104) (succ_102 zero_104) (succ_102 zero_104)))))
(assert (forall ((x_46590 Nat_430) (x_46591 Nat_430) (x_46592 Nat_430) (x_46593 Nat_430) (x_46594 Nat_430) (x_46595 Nat_430) (x_46596 Nat_430) (fail_24 Nat_430) (x_46561 Nat_430) (x_46560 Nat_430) (x_46559 Nat_430))
	(=>	(and (diseqNat_430 x_46559 zero_104)
			(mul_8 x_46590 x_46559 x_46560 x_46561)
			(mul_8 x_46591 (succ_102 zero_104) x_46560 x_46561)
			(mul_8 x_46592 x_46559 (succ_102 zero_104) x_46561)
			(mul_8 x_46593 x_46559 x_46560 (succ_102 zero_104))
			(add_273 x_46594 x_46591 x_46592 x_46593)
			(add_273 x_46595 x_46559 x_46560 x_46561)
			(add_273 x_46596 x_46590 x_46594 x_46595)
			(plus_103 fail_24 (succ_102 zero_104) x_46596))
		(mul_8 fail_24 (succ_102 x_46559) (succ_102 x_46560) (succ_102 x_46561)))))
(assert (forall ((x_46599 Nat_430) (x_46600 Nat_430) (x_46601 Nat_430) (x_46602 Nat_430) (x_46603 Nat_430) (x_46604 Nat_430) (x_46605 Nat_430) (fail_24 Nat_430) (x_46561 Nat_430) (x_46560 Nat_430))
	(=>	(and (diseqNat_430 x_46560 zero_104)
			(mul_8 x_46599 zero_104 x_46560 x_46561)
			(mul_8 x_46600 (succ_102 zero_104) x_46560 x_46561)
			(mul_8 x_46601 zero_104 (succ_102 zero_104) x_46561)
			(mul_8 x_46602 zero_104 x_46560 (succ_102 zero_104))
			(add_273 x_46603 x_46600 x_46601 x_46602)
			(add_273 x_46604 zero_104 x_46560 x_46561)
			(add_273 x_46605 x_46599 x_46603 x_46604)
			(plus_103 fail_24 (succ_102 zero_104) x_46605))
		(mul_8 fail_24 (succ_102 zero_104) (succ_102 x_46560) (succ_102 x_46561)))))
(assert (forall ((x_46608 Nat_430) (x_46609 Nat_430) (x_46610 Nat_430) (x_46611 Nat_430) (x_46612 Nat_430) (x_46613 Nat_430) (x_46614 Nat_430) (fail_24 Nat_430) (x_46561 Nat_430) (x_46560 Nat_430) (x_46559 Nat_430))
	(=>	(and (diseqNat_430 x_46559 zero_104)
			(mul_8 x_46608 x_46559 x_46560 x_46561)
			(mul_8 x_46609 (succ_102 zero_104) x_46560 x_46561)
			(mul_8 x_46610 x_46559 (succ_102 zero_104) x_46561)
			(mul_8 x_46611 x_46559 x_46560 (succ_102 zero_104))
			(add_273 x_46612 x_46609 x_46610 x_46611)
			(add_273 x_46613 x_46559 x_46560 x_46561)
			(add_273 x_46614 x_46608 x_46612 x_46613)
			(plus_103 fail_24 (succ_102 zero_104) x_46614))
		(mul_8 fail_24 (succ_102 x_46559) (succ_102 x_46560) (succ_102 x_46561)))))
(assert (forall ((x_46617 Nat_430) (x_46618 Nat_430) (x_46619 Nat_430) (x_46620 Nat_430) (x_46621 Nat_430) (x_46622 Nat_430) (x_46623 Nat_430) (fail_24 Nat_430) (x_46561 Nat_430))
	(=>	(and (diseqNat_430 x_46561 zero_104)
			(mul_8 x_46617 zero_104 zero_104 x_46561)
			(mul_8 x_46618 (succ_102 zero_104) zero_104 x_46561)
			(mul_8 x_46619 zero_104 (succ_102 zero_104) x_46561)
			(mul_8 x_46620 zero_104 zero_104 (succ_102 zero_104))
			(add_273 x_46621 x_46618 x_46619 x_46620)
			(add_273 x_46622 zero_104 zero_104 x_46561)
			(add_273 x_46623 x_46617 x_46621 x_46622)
			(plus_103 fail_24 (succ_102 zero_104) x_46623))
		(mul_8 fail_24 (succ_102 zero_104) (succ_102 zero_104) (succ_102 x_46561)))))
(assert (forall ((x_46626 Nat_430) (x_46627 Nat_430) (x_46628 Nat_430) (x_46629 Nat_430) (x_46630 Nat_430) (x_46631 Nat_430) (x_46632 Nat_430) (fail_24 Nat_430) (x_46561 Nat_430) (x_46560 Nat_430) (x_46559 Nat_430))
	(=>	(and (diseqNat_430 x_46559 zero_104)
			(mul_8 x_46626 x_46559 x_46560 x_46561)
			(mul_8 x_46627 (succ_102 zero_104) x_46560 x_46561)
			(mul_8 x_46628 x_46559 (succ_102 zero_104) x_46561)
			(mul_8 x_46629 x_46559 x_46560 (succ_102 zero_104))
			(add_273 x_46630 x_46627 x_46628 x_46629)
			(add_273 x_46631 x_46559 x_46560 x_46561)
			(add_273 x_46632 x_46626 x_46630 x_46631)
			(plus_103 fail_24 (succ_102 zero_104) x_46632))
		(mul_8 fail_24 (succ_102 x_46559) (succ_102 x_46560) (succ_102 x_46561)))))
(assert (forall ((x_46635 Nat_430) (x_46636 Nat_430) (x_46637 Nat_430) (x_46638 Nat_430) (x_46639 Nat_430) (x_46640 Nat_430) (x_46641 Nat_430) (fail_24 Nat_430) (x_46561 Nat_430) (x_46560 Nat_430))
	(=>	(and (diseqNat_430 x_46560 zero_104)
			(mul_8 x_46635 zero_104 x_46560 x_46561)
			(mul_8 x_46636 (succ_102 zero_104) x_46560 x_46561)
			(mul_8 x_46637 zero_104 (succ_102 zero_104) x_46561)
			(mul_8 x_46638 zero_104 x_46560 (succ_102 zero_104))
			(add_273 x_46639 x_46636 x_46637 x_46638)
			(add_273 x_46640 zero_104 x_46560 x_46561)
			(add_273 x_46641 x_46635 x_46639 x_46640)
			(plus_103 fail_24 (succ_102 zero_104) x_46641))
		(mul_8 fail_24 (succ_102 zero_104) (succ_102 x_46560) (succ_102 x_46561)))))
(assert (forall ((x_46644 Nat_430) (x_46645 Nat_430) (x_46646 Nat_430) (x_46647 Nat_430) (x_46648 Nat_430) (x_46649 Nat_430) (x_46650 Nat_430) (fail_24 Nat_430) (x_46561 Nat_430) (x_46560 Nat_430) (x_46559 Nat_430))
	(=>	(and (diseqNat_430 x_46559 zero_104)
			(mul_8 x_46644 x_46559 x_46560 x_46561)
			(mul_8 x_46645 (succ_102 zero_104) x_46560 x_46561)
			(mul_8 x_46646 x_46559 (succ_102 zero_104) x_46561)
			(mul_8 x_46647 x_46559 x_46560 (succ_102 zero_104))
			(add_273 x_46648 x_46645 x_46646 x_46647)
			(add_273 x_46649 x_46559 x_46560 x_46561)
			(add_273 x_46650 x_46644 x_46648 x_46649)
			(plus_103 fail_24 (succ_102 zero_104) x_46650))
		(mul_8 fail_24 (succ_102 x_46559) (succ_102 x_46560) (succ_102 x_46561)))))
(assert (forall ((x_46560 Nat_430) (x_46559 Nat_430))
	(mul_8 zero_104 (succ_102 x_46559) (succ_102 x_46560) zero_104)))
(assert (forall ((x_46559 Nat_430) (z_1510 Nat_430))
	(mul_8 zero_104 (succ_102 x_46559) zero_104 z_1510)))
(assert (forall ((y_1673 Nat_430) (z_1510 Nat_430))
	(mul_8 zero_104 zero_104 y_1673 z_1510)))
(assert (forall ((x_46656 Nat_430) (x_46657 Nat_430) (x_46658 Nat_430) (x_46659 Nat_430) (x_46562 Nat_430) (x_46563 Nat_430) (x_46564 Nat_430) (x_46565 Nat_430) (x_46566 Nat_430))
	(=>	(and true
			(diseqNat_430 x_46657 x_46659)
			(mul_8 x_46656 x_46563 x_46564 x_46565)
			(mul_8 x_46657 x_46562 x_46656 x_46566)
			(mul_8 x_46658 x_46564 x_46565 x_46566)
			(mul_8 x_46659 x_46562 x_46563 x_46658))
		false)))
(assert (forall ((x_46660 Nat_430) (x_46661 Nat_430) (x_46662 Nat_430) (x_46663 Nat_430) (x_46567 Nat_430) (y_1674 Nat_430) (z_1511 Nat_430))
	(=>	(and true
			(diseqNat_430 x_46661 x_46663)
			(plus_103 x_46660 y_1674 z_1511)
			(plus_103 x_46661 x_46567 x_46660)
			(plus_103 x_46662 x_46567 y_1674)
			(plus_103 x_46663 x_46662 z_1511))
		false)))
(assert (forall ((x_46664 Nat_430) (x_46665 Nat_430) (x_46568 Nat_430) (y_1675 Nat_430))
	(=>	(and true
			(diseqNat_430 x_46664 x_46665)
			(plus_103 x_46664 x_46568 y_1675)
			(plus_103 x_46665 y_1675 x_46568))
		false)))
(assert (forall ((x_46666 Nat_430) (x_46569 Nat_430))
	(=>	(and true
			(diseqNat_430 x_46666 x_46569)
			(plus_103 x_46666 x_46569 zero_104))
		false)))
(assert (forall ((x_46667 Nat_430) (x_46570 Nat_430))
	(=>	(and true
			(diseqNat_430 x_46667 x_46570)
			(plus_103 x_46667 zero_104 x_46570))
		false)))
(check-sat)
